(set-logic ALL)
(declare-var size (BitVec 32))
(declare-var conf_0 (BitVec 32))
(declare-var conf_0! (BitVec 32))
(declare-var conf_1 (BitVec 32))
(declare-var conf_1! (BitVec 32))
(declare-var conf_2 (BitVec 32))
(declare-var conf_2! (BitVec 32))
(declare-var conf_3 (BitVec 32))
(declare-var conf_3! (BitVec 32))
(declare-var conf_4 (BitVec 32))
(declare-var conf_4! (BitVec 32))
(declare-var size! (BitVec 32))
(declare-var x (BitVec 32))
(declare-var x! (BitVec 32))
(declare-var y (BitVec 32))
(declare-var y! (BitVec 32))
(declare-var z (BitVec 32))
(declare-var z! (BitVec 32))
(declare-var conf_0_0 (BitVec 32))
(declare-var conf_0_0! (BitVec 32))
(declare-var conf_1_0 (BitVec 32))
(declare-var conf_1_0! (BitVec 32))
(declare-var conf_1_1 (BitVec 32))
(declare-var conf_1_1! (BitVec 32))
(declare-var conf_1_2 (BitVec 32))
(declare-var conf_1_2! (BitVec 32))
(declare-var conf_1_3 (BitVec 32))
(declare-var conf_1_3! (BitVec 32))
(declare-var conf_2_0 (BitVec 32))
(declare-var conf_2_0! (BitVec 32))
(declare-var conf_3_0 (BitVec 32))
(declare-var conf_3_0! (BitVec 32))
(declare-var conf_3_1 (BitVec 32))
(declare-var conf_3_1! (BitVec 32))
(declare-var conf_3_2 (BitVec 32))
(declare-var conf_3_2! (BitVec 32))
(declare-var conf_4_0 (BitVec 32))
(declare-var conf_4_0! (BitVec 32))
(declare-var size_0 (BitVec 32))
(declare-var size_0! (BitVec 32))
(declare-var x_0 (BitVec 32))
(declare-var x_0! (BitVec 32))
(declare-var x_1 (BitVec 32))
(declare-var x_1! (BitVec 32))
(declare-var x_2 (BitVec 32))
(declare-var x_2! (BitVec 32))
(declare-var x_3 (BitVec 32))
(declare-var x_3! (BitVec 32))
(declare-var y_0 (BitVec 32))
(declare-var y_0! (BitVec 32))
(declare-var y_1 (BitVec 32))
(declare-var y_1! (BitVec 32))
(declare-var y_2 (BitVec 32))
(declare-var y_2! (BitVec 32))
(declare-var y_3 (BitVec 32))
(declare-var y_3! (BitVec 32))
(declare-var z_0 (BitVec 32))
(declare-var z_0! (BitVec 32))
(synth-fun inv-f((parameter0 (BitVec 32))(parameter1 (BitVec 32))(parameter2 (BitVec 32))(parameter3 (BitVec 32))(parameter4 (BitVec 32))(parameter5 (BitVec 32))(parameter6 (BitVec 32))(parameter7 (BitVec 32))(parameter8 (BitVec 32))(parameter9 (BitVec 32))(parameter10 (BitVec 32))(parameter11 (BitVec 32))(parameter12 (BitVec 32))(parameter13 (BitVec 32))(parameter14 (BitVec 32))(parameter15 (BitVec 32))(parameter16 (BitVec 32))(parameter17 (BitVec 32))(parameter18 (BitVec 32))(parameter19 (BitVec 32))(parameter20 (BitVec 32))(parameter21 (BitVec 32))(parameter22 (BitVec 32))(parameter23 (BitVec 32))(parameter24 (BitVec 32))(parameter25 (BitVec 32))(parameter26 (BitVec 32))(parameter27 (BitVec 32))(parameter28 (BitVec 32)))Bool) 
(constraint (=> (and (and (and (and (and (and (and (and (and (and (and (= conf_0 conf_0_0) (= conf_1 conf_1_0) ) (= conf_2 conf_2_0) ) (= conf_3 conf_3_0) ) (= conf_4 conf_4_0) ) (= x x_1) ) (= conf_0_0 (_ bv1 32)) ) (= conf_1_0 (_ bv5 32)) ) (= conf_2_0 (_ bv7 32)) ) (= conf_3_0 (_ bv6 32)) ) (= conf_4_0 (_ bv7 32)) ) (= x_1 (_ bv0 32)) )(inv-f conf_0 conf_1 conf_2 conf_3 conf_4 size x y z conf_0_0 conf_1_0 conf_1_1 conf_1_2 conf_1_3 conf_2_0 conf_3_0 conf_3_1 conf_3_2 conf_4_0 size_0 x_0 x_1 x_2 x_3 y_0 y_1 y_2 y_3 z_0 )))
(constraint (=> (and (inv-f conf_0 conf_1 conf_2 conf_3 conf_4 size x y z conf_0_0 conf_1_0 conf_1_1 conf_1_2 conf_1_3 conf_2_0 conf_3_0 conf_3_1 conf_3_2 conf_4_0 size_0 x_0 x_1 x_2 x_3 y_0 y_1 y_2 y_3 z_0 ) (or (or (and (and (and (and (and (and (and (and (and (and (and (and (and (and (and (and (= conf_1_1 conf_1) (= conf_3_1 conf_3) ) (= x_2 x) ) (= y_1 y) ) (= conf_1_1 conf_1!) ) (= conf_3_1 conf_3!) ) (= x_2 x!) ) (= y_1 y!) ) (= size size_0) ) (= size! size_0) ) (= conf_0 conf_0!) ) (= conf_1 conf_1!) ) (= conf_2 conf_2!) ) (= conf_3 conf_3!) ) (= conf_4 conf_4!) ) (= y y!) ) (= z z!) ) (and (and (and (and (and (and (and (and (and (and (and (and (and (and (and (and (and (and (and (and (and (and (and (and (and (= conf_1_1 conf_1) (= conf_3_1 conf_3) ) (= x_2 x) ) (= y_1 y) ) (bvult x_2 size_0) ) (= x_3 (bvadd x_2 (_ bv1 32))) ) (= conf_3_2 conf_0_0) ) (bvule z_0 y_1) ) (= y_2 z_0) ) (= conf_1_2 (bvadd conf_1_1 conf_4_0)) ) (= conf_1_3 conf_1_2) ) (= y_3 y_2) ) (= conf_1_3 conf_1!) ) (= conf_3_2 conf_3!) ) (= x_3 x!) ) (= y_3 y!) ) (= conf_0 conf_0_0) ) (= conf_0! conf_0_0) ) (= conf_2 conf_2_0) ) (= conf_2! conf_2_0) ) (= conf_4 conf_4_0) ) (= conf_4! conf_4_0) ) (= size size_0) ) (= size! size_0) ) (= z z_0) ) (= z! z_0) ) ) (and (and (and (and (and (and (and (and (and (and (and (and (and (and (and (and (and (and (and (and (and (and (and (= conf_1_1 conf_1) (= conf_3_1 conf_3) ) (= x_2 x) ) (= y_1 y) ) (bvult x_2 size_0) ) (= x_3 (bvadd x_2 (_ bv1 32))) ) (= conf_3_2 conf_0_0) ) (not (bvule z_0 y_1)) ) (= conf_1_3 conf_1_1) ) (= y_3 y_1) ) (= conf_1_3 conf_1!) ) (= conf_3_2 conf_3!) ) (= x_3 x!) ) (= y_3 y!) ) (= conf_0 conf_0_0) ) (= conf_0! conf_0_0) ) (= conf_2 conf_2_0) ) (= conf_2! conf_2_0) ) (= conf_4 conf_4_0) ) (= conf_4! conf_4_0) ) (= size size_0) ) (= size! size_0) ) (= z z_0) ) (= z! z_0) ) ) )(inv-f conf_0! conf_1! conf_2! conf_3! conf_4! size! x! y! z! conf_0_0! conf_1_0! conf_1_1! conf_1_2! conf_1_3! conf_2_0! conf_3_0! conf_3_1! conf_3_2! conf_4_0! size_0! x_0! x_1! x_2! x_3! y_0! y_1! y_2! y_3! z_0! )))
(constraint (=> (inv-f conf_0 conf_1 conf_2 conf_3 conf_4 size x y z conf_0_0 conf_1_0 conf_1_1 conf_1_2 conf_1_3 conf_2_0 conf_3_0 conf_3_1 conf_3_2 conf_4_0 size_0 x_0 x_1 x_2 x_3 y_0 y_1 y_2 y_3 z_0 )(or (not (and (and (and (and (and (and (and (and (= conf_0 conf_0_0) (= conf_1 conf_1_1) ) (= conf_2 conf_2_0) ) (= conf_3 conf_3_1) ) (= conf_4 conf_4_0) ) (= size size_0) ) (= x x_2) ) (= y y_1) ) (= z z_0) )) (not (and (and (not (bvult x_2 size_0)) (bvugt size_0 (_ bv0 32)) ) (not (bvuge z_0 y_1)) )) )))
(check-synth)

